p wcnf 106 128 129 
1 -40 12 0 
1 15 -88 0 
1 53 94 0 
1 98 -20 0 
1 32 95 0 
1 -8 70 0 
1 -30 29 0 
1 68 -6 0 
1 18 67 0 
1 -28 70 0 
1 97 -18 0 
1 -6 -41 0 
1 -64 47 0 
1 15 33 0 
1 87 -96 0 
1 7 69 0 
1 51 5 0 
1 -96 28 0 
1 -4 88 0 
1 -37 -22 0 
1 -72 -13 0 
1 -5 99 0 
1 12 69 0 
1 -9 27 0 
1 -64 16 0 
1 -47 11 0 
1 -94 -90 0 
1 -69 -45 0 
1 -29 76 0 
1 97 32 0 
1 -83 58 0 
1 -1 -39 0 
1 69 -70 0 
1 -3 82 0 
1 63 80 0 
1 80 93 0 
1 50 -40 0 
1 12 16 0 
1 35 -64 0 
1 -105 -95 0 
1 -84 12 0 
1 60 -74 0 
1 -65 93 0 
1 102 -36 0 
1 -58 -56 0 
1 52 39 0 
1 32 -8 0 
1 -105 78 0 
1 -93 43 0 
1 -19 79 0 
1 -10 82 0 
1 83 -29 0 
1 79 -70 0 
1 -30 -71 0 
1 -12 18 0 
1 -101 -6 0 
1 22 18 0 
1 -18 37 0 
1 -98 -18 0 
1 45 -47 0 
1 91 -10 0 
1 -88 -21 0 
1 1 67 0 
1 15 -34 0 
1 65 -10 0 
1 53 -57 0 
1 -62 74 0 
1 82 79 0 
1 35 31 0 
1 -82 67 0 
1 -55 5 0 
1 -11 -71 0 
1 -78 35 0 
1 50 -79 0 
1 48 29 0 
1 -4 26 0 
1 -48 -81 0 
1 56 99 0 
1 -81 -26 0 
1 94 -10 0 
1 31 -14 0 
1 -15 -59 0 
1 81 55 0 
1 -28 -40 0 
1 -79 -6 0 
1 -53 33 0 
1 -77 81 0 
1 43 24 0 
1 85 2 0 
1 -90 9 0 
1 8 -33 0 
1 -31 -103 0 
1 -62 -77 0 
1 10 98 0 
1 21 18 0 
1 9 33 0 
1 83 63 0 
1 -52 -54 0 
1 76 -97 0 
1 -71 -31 0 
1 -20 -90 0 
1 27 22 0 
1 26 73 0 
1 -13 -81 0 
1 42 50 0 
1 3 78 0 
1 -69 95 0 
1 86 98 0 
1 35 71 0 
1 -18 25 0 
1 32 -102 0 
1 67 68 0 
1 -16 -96 0 
1 -45 -71 0 
1 23 97 0 
1 64 -66 0 
1 -72 97 0 
1 -16 81 0 
1 6 12 0 
1 -49 -69 0 
1 -43 -53 0 
1 -76 -46 0 
1 -54 64 0 
1 72 75 0 
1 14 -22 0 
1 76 66 0 
1 -11 42 0 
1 -90 37 0 
